30 1 6
303 969 521 183 890 491 722 628 90 314 931 296 454 232 198 239 344 929 14 186 986 473 736 165 721 109 842 893 585 511 
34 887 831 906 422 721 748 143 700 837 808 630 484 262 213 34 852 557 962 865 94 948 338 181 464 58 290 305 302 226 
167 687 113 350 944 886 422 692 380 121 880 188 103 364 449 315 397 300 223 710 165 316 657 854 497 120 263 138 777 916 
363 943 955 827 292 898 712 65 589 92 186 469 631 640 184 79 954 932 730 177 641 246 844 650 99 340 769 713 829 897 
629 192 840 935 370 483 832 434 548 773 877 85 593 507 724 776 585 29 59 666 205 51 912 49 700 362 740 821 75 921 
717 55 464 908 989 833 391 172 266 290 944 142 374 888 1000 97 15 936 477 73 602 682 124 513 82 175 226 173 995 652 
930 7120 580 9080 6190 3980 7410 3610 5700 3580 6500 8650 8520 230 7530 8510 4710 1190 7870 9480 1920 3880 9810 6670 2520 4140 8410 4770 9380 8360 
85610
